Version identifier: 20.1.0.0 | 2020-11-10 | 9bedb6d68
Tried aggregator 2 times.
MIP Presolve eliminated 1758 rows and 849 columns.
MIP Presolve modified 4640 coefficients.
Aggregator did 203 substitutions.
Reduced MIP has 2848 rows, 2263 columns, and 9362 nonzeros.
Reduced MIP has 469 binaries, 1794 generals, 0 SOSs, and 0 indicators.
Presolve time = 0.03 sec. (10.72 ticks)
Probing fixed 60 vars, tightened 657 bounds.
Probing time = 0.00 sec. (2.05 ticks)
Tried aggregator 2 times.
Detecting symmetries...
MIP Presolve eliminated 1179 rows and 80 columns.
MIP Presolve modified 251 coefficients.
Aggregator did 16 substitutions.
Reduced MIP has 1653 rows, 2167 columns, and 5408 nonzeros.
Reduced MIP has 609 binaries, 1558 generals, 0 SOSs, and 0 indicators.
Presolve time = 0.02 sec. (7.78 ticks)
Probing time = 0.00 sec. (0.40 ticks)
Clique table members: 5.
MIP emphasis: balance optimality and feasibility.
MIP search method: dynamic search.
Parallel mode: deterministic, using up to 24 threads.
Root relaxation solution time = 0.02 sec. (5.32 ticks)

        Nodes                                         Cuts/
   Node  Left     Objective  IInf  Best Integer    Best Bound    ItCnt     Gap

      0     0        0.0000    79                      0.0000      520         
      0     0        0.0000   151                   Cuts: 149      627         
*     0+    0                           46.0000        0.0000           100.00%
*     0+    0                           19.0000        0.0000           100.00%
      0     0        cutoff             19.0000       19.0000      808    0.00%
Elapsed time = 0.92 sec. (154.50 ticks, tree = 0.01 MB, solutions = 2)

Implied bound cuts applied:  54
Flow cuts applied:  8
Mixed integer rounding cuts applied:  17
Zero-half cuts applied:  83
Lift and project cuts applied:  20
Gomory fractional cuts applied:  29

Root node processing (before b&c):
  Real time             =    0.92 sec. (154.65 ticks)
Parallel b&c, 24 threads:
  Real time             =    0.00 sec. (0.00 ticks)
  Sync time (average)   =    0.00 sec.
  Wait time (average)   =    0.00 sec.
                          ------------
Total (root+branch&cut) =    0.92 sec. (154.65 ticks)

Solution status = Optimal
Solution LB = 19
Solution UB = 19
Runtime = 0.925975 seconds
	Command being timed: "/home/min/git_repos/CS598MEBProject/CNT-ILP/build/cnt -s 2 ./output/k8_n30/simC_c1_k8_n30_u3_s1_del04.input-left.cnp"
	User time (seconds): 12.30
	System time (seconds): 0.11
	Percent of CPU this job got: 1274%
	Elapsed (wall clock) time (h:mm:ss or m:ss): 0:00.97
	Average shared text size (kbytes): 0
	Average unshared data size (kbytes): 0
	Average stack size (kbytes): 0
	Average total size (kbytes): 0
	Maximum resident set size (kbytes): 136808
	Average resident set size (kbytes): 0
	Major (requiring I/O) page faults: 0
	Minor (reclaiming a frame) page faults: 32335
	Voluntary context switches: 5890
	Involuntary context switches: 1703
	Swaps: 0
	File system inputs: 0
	File system outputs: 16
	Socket messages sent: 0
	Socket messages received: 0
	Signals delivered: 0
	Page size (bytes): 4096
	Exit status: 0
